33D32945 STP File, STP Format Version 1.0

SECTION Comments
Name "edge_n12_d5_s8"
Problem "Euclidean Steiner Tree Problem"
Remark "Generated with STPGenerator. 5 dimensions."
END

SECTION Graph
Nodes 12
END

SECTION Coordinates
DDDDD 0 0.3527607286 0.3527607286 0.3527607286 0.3527607286 0.3527607286
DDDDD 1 0.7895895954 0.7895895954 0.7895895954 0.7895895954 0.7895895954
DDDDD 2 0.9058258696 0.9058258696 0.9058258696 0.9058258696 0.9058258696
DDDDD 3 0.0438874350 0.0438874350 0.0438874350 0.0438874350 0.0438874350
DDDDD 4 0.9542649202 0.9542649202 0.9542649202 0.9542649202 0.9542649202
DDDDD 5 0.2482710840 0.2482710840 0.2482710840 0.2482710840 0.2482710840
DDDDD 6 0.8679820145 0.8679820145 0.8679820145 0.8679820145 0.8679820145
DDDDD 7 0.8387081427 0.8387081427 0.8387081427 0.8387081427 0.8387081427
DDDDD 8 0.9220907362 0.9220907362 0.9220907362 0.9220907362 0.9220907362
DDDDD 9 0.6533997663 0.6533997663 0.6533997663 0.6533997663 0.6533997663
DDDDD 10 0.5500675400 0.5500675400 0.5500675400 0.5500675400 0.5500675400
DDDDD 11 0.2691321919 0.2691321919 0.2691321919 0.2691321919 0.2691321919
END
